c Created with the Wolfram Language : www.wolfram.com
c 
p edge 100 514
e 1 7
e 7 12
e 9 12
e 1 15
e 11 16
e 14 16
e 2 17
e 6 17
e 3 18
e 17 18
e 2 19
e 3 19
e 5 19
e 6 20
e 17 20
e 19 20
e 5 21
e 11 21
e 18 22
e 21 22
e 7 23
e 11 23
e 21 23
e 8 24
e 18 24
e 6 25
e 13 25
e 22 25
e 5 26
e 17 26
e 18 26
e 21 26
e 25 26
e 10 28
e 18 28
e 1 30
e 2 30
e 17 30
e 20 30
e 9 31
e 14 31
e 22 31
e 25 31
e 8 32
e 28 32
e 29 32
e 2 33
e 11 33
e 13 33
e 5 34
e 6 34
e 7 34
e 10 34
e 13 34
e 14 34
e 29 34
e 3 35
e 23 35
e 33 35
e 3 36
e 27 36
e 29 36
e 34 36
e 35 36
e 33 37
e 10 38
e 26 38
e 28 38
e 32 38
e 11 39
e 12 39
e 15 39
e 18 39
e 19 39
e 29 39
e 34 39
e 35 39
e 11 40
e 13 40
e 16 40
e 34 40
e 37 40
e 3 41
e 7 41
e 23 41
e 3 42
e 24 42
e 32 42
e 35 42
e 36 42
e 37 42
e 21 43
e 32 43
e 38 43
e 39 43
e 4 44
e 8 44
e 10 44
e 16 44
e 18 44
e 31 44
e 36 44
e 5 45
e 9 45
e 10 45
e 39 45
e 43 45
e 44 45
e 9 46
e 19 46
e 20 46
e 40 46
e 1 47
e 2 47
e 23 47
e 37 47
e 40 47
e 42 47
e 6 48
e 16 48
e 45 48
e 10 49
e 34 49
e 40 49
e 42 49
e 12 50
e 28 50
e 38 50
e 44 50
e 6 51
e 14 51
e 37 51
e 41 51
e 42 51
e 45 51
e 46 51
e 3 52
e 10 52
e 51 52
e 2 53
e 41 53
e 42 53
e 8 54
e 12 54
e 17 54
e 31 54
e 48 54
e 2 55
e 11 55
e 14 55
e 25 55
e 31 55
e 33 55
e 49 55
e 3 56
e 8 56
e 1 57
e 4 57
e 9 57
e 10 57
e 22 57
e 49 57
e 3 58
e 5 58
e 26 58
e 51 58
e 39 59
e 53 59
e 8 60
e 45 60
e 57 60
e 1 61
e 2 61
e 10 61
e 15 61
e 40 61
e 44 61
e 48 61
e 56 61
e 6 62
e 13 62
e 19 62
e 24 62
e 34 62
e 39 62
e 40 62
e 41 62
e 47 62
e 49 62
e 50 62
e 13 63
e 24 63
e 27 63
e 30 63
e 40 63
e 45 63
e 49 63
e 53 63
e 54 63
e 5 64
e 13 64
e 15 64
e 42 64
e 43 64
e 56 64
e 63 64
e 22 65
e 28 65
e 51 65
e 59 65
e 7 66
e 26 66
e 27 66
e 29 66
e 44 66
e 60 66
e 65 66
e 11 67
e 18 67
e 21 67
e 26 67
e 44 67
e 45 67
e 50 67
e 54 67
e 63 67
e 66 67
e 3 68
e 17 68
e 52 68
e 55 68
e 63 68
e 12 69
e 37 69
e 41 69
e 44 69
e 55 69
e 59 69
e 64 69
e 6 70
e 21 70
e 24 70
e 25 70
e 41 70
e 53 70
e 57 70
e 18 71
e 39 71
e 42 71
e 51 71
e 59 71
e 61 71
e 62 71
e 10 72
e 43 72
e 58 72
e 59 72
e 65 72
e 13 73
e 18 73
e 41 73
e 44 73
e 47 73
e 48 73
e 57 73
e 1 74
e 8 74
e 12 74
e 27 74
e 42 74
e 58 74
e 59 74
e 62 74
e 9 75
e 10 75
e 15 75
e 17 75
e 25 75
e 26 75
e 33 75
e 35 75
e 45 75
e 49 75
e 55 75
e 60 75
e 69 75
e 73 75
e 4 76
e 5 76
e 53 76
e 64 76
e 8 77
e 10 77
e 16 77
e 17 77
e 20 77
e 22 77
e 28 77
e 31 77
e 33 77
e 47 77
e 54 77
e 58 77
e 59 77
e 13 78
e 20 78
e 25 78
e 41 78
e 49 78
e 54 78
e 59 78
e 62 78
e 72 78
e 4 79
e 6 79
e 34 79
e 39 79
e 41 79
e 45 79
e 46 79
e 56 79
e 66 79
e 68 79
e 25 80
e 36 80
e 37 80
e 45 80
e 69 80
e 25 81
e 43 81
e 59 81
e 1 82
e 5 82
e 12 82
e 36 82
e 42 82
e 46 82
e 57 82
e 64 82
e 69 82
e 76 82
e 26 83
e 46 83
e 51 83
e 60 83
e 76 83
e 77 83
e 81 83
e 1 84
e 13 84
e 14 84
e 20 84
e 26 84
e 63 84
e 70 84
e 73 84
e 77 84
e 83 84
e 3 85
e 21 85
e 22 85
e 28 85
e 34 85
e 53 85
e 55 85
e 56 85
e 62 85
e 70 85
e 81 85
e 82 85
e 4 86
e 11 86
e 14 86
e 23 86
e 38 86
e 44 86
e 58 86
e 61 86
e 71 86
e 5 87
e 34 87
e 49 87
e 74 87
e 83 87
e 1 88
e 4 88
e 18 88
e 21 88
e 36 88
e 41 88
e 60 88
e 67 88
e 83 88
e 84 88
e 87 88
e 16 89
e 17 89
e 37 89
e 50 89
e 55 89
e 62 89
e 64 89
e 74 89
e 83 89
e 10 90
e 26 90
e 38 90
e 43 90
e 47 90
e 53 90
e 56 90
e 57 90
e 58 90
e 71 90
e 73 90
e 89 90
e 1 91
e 7 91
e 37 91
e 55 91
e 58 91
e 59 91
e 62 91
e 73 91
e 76 91
e 80 91
e 87 91
e 8 92
e 14 92
e 17 92
e 28 92
e 31 92
e 46 92
e 59 92
e 63 92
e 84 92
e 90 92
e 29 93
e 31 93
e 35 93
e 39 93
e 71 93
e 75 93
e 76 93
e 8 94
e 10 94
e 14 94
e 32 94
e 38 94
e 45 94
e 52 94
e 56 94
e 61 94
e 65 94
e 81 94
e 8 95
e 25 95
e 42 95
e 46 95
e 48 95
e 57 95
e 70 95
e 71 95
e 87 95
e 89 95
e 93 95
e 24 96
e 25 96
e 39 96
e 58 96
e 63 96
e 69 96
e 75 96
e 76 96
e 86 96
e 89 96
e 93 96
e 94 96
e 24 97
e 29 97
e 33 97
e 35 97
e 69 97
e 78 97
e 86 97
e 88 97
e 6 98
e 21 98
e 51 98
e 58 98
e 64 98
e 83 98
e 86 98
e 90 98
e 1 99
e 4 99
e 7 99
e 19 99
e 25 99
e 33 99
e 44 99
e 45 99
e 69 99
e 82 99
e 87 99
e 1 100
e 3 100
e 21 100
e 23 100
e 38 100
e 45 100
e 74 100
e 79 100
e 87 100
